500
500 500
1 350 24
2 349 461
3 349 722
4 349 350
5 349 271
6 348 988
7 347 220
8 347 649
9 346 800
10 346 420
11 345 965
12 345 668
13 344 237
14 343 507
15 343 229
16 342 548
17 341 679
18 341 357
19 341 945
20 341 357
21 340 773
22 339 944
23 339 26
24 339 312
25 338 855
26 338 320
27 338 110
28 337 339
29 337 448
30 337 675
31 336 557
32 336 373
33 335 996
34 335 32
35 334 113
36 334 531
37 332 704
38 332 106
39 331 875
40 331 671
41 330 384
42 330 758
43 328 530
44 327 934
45 327 747
46 327 732
47 326 793
48 326 344
49 326 27
50 326 824
51 325 138
52 325 359
53 325 908
54 324 58
55 324 33
56 324 372
57 323 111
58 323 958
59 323 57
60 322 526
61 322 135
62 322 524
63 321 110
64 321 868
65 320 112
66 320 314
67 320 748
68 319 441
69 318 534
70 318 232
71 318 826
72 318 507
73 317 949
74 315 577
75 314 342
76 314 114
77 314 534
78 313 602
79 313 939
80 312 475
81 311 219
82 311 86
83 310 445
84 309 25
85 307 734
86 307 850
87 306 267
88 306 41
89 305 970
90 305 328
91 303 307
92 303 156
93 303 96
94 302 60
95 302 968
96 302 145
97 302 48
98 302 129
99 301 38
100 301 313
101 301 110
102 300 819
103 300 903
104 300 612
105 300 995
106 299 218
107 299 836
108 299 515
109 298 825
110 298 560
111 298 705
112 296 565
113 296 830
114 296 311
115 296 434
116 296 131
117 295 198
118 295 241
119 295 46
120 294 524
121 294 724
122 294 271
123 294 720
124 293 148
125 292 946
126 292 47
127 292 136
128 292 3
129 291 326
130 291 316
131 291 262
132 290 405
133 290 204
134 290 50
135 289 142
136 288 681
137 288 854
138 288 446
139 288 522
140 287 5
141 286 723
142 286 840
143 286 959
144 286 18
145 285 612
146 284 496
147 281 260
148 280 990
149 280 422
150 278 153
151 278 970
152 278 659
153 278 759
154 277 670
155 277 230
156 276 246
157 276 220
158 275 519
159 275 366
160 274 407
161 274 402
162 274 394
163 274 222
164 273 991
165 273 68
166 273 126
167 273 93
168 272 391
169 272 608
170 271 12
171 271 987
172 269 231
173 268 548
174 268 210
175 268 273
176 268 810
177 268 990
178 268 264
179 267 330
180 266 565
181 264 789
182 264 436
183 262 388
184 262 58
185 261 131
186 261 277
187 261 919
188 260 44
189 260 956
190 259 538
191 258 120
192 257 721
193 257 687
194 256 993
195 256 166
196 256 507
197 255 643
198 255 890
199 255 112
200 254 309
201 254 438
202 254 412
203 253 577
204 253 396
205 252 0
206 252 863
207 252 25
208 252 8
209 252 831
210 251 799
211 251 539
212 250 199
213 248 832
214 248 955
215 247 138
216 247 856
217 246 194
218 245 273
219 244 136
220 244 231
221 243 693
222 243 20
223 242 9
224 242 232
225 241 412
226 240 811
227 240 918
228 240 433
229 239 881
230 238 557
231 237 561
232 236 56
233 236 123
234 235 355
235 235 119
236 234 643
237 233 336
238 233 732
239 233 250
240 233 193
241 232 519
242 232 680
243 232 305
244 229 574
245 229 958
246 229 691
247 229 194
248 228 339
249 228 313
250 225 169
251 225 636
252 225 937
253 225 657
254 224 574
255 224 475
256 224 119
257 223 53
258 222 552
259 221 538
260 220 487
261 220 758
262 219 650
263 219 69
264 219 135
265 219 300
266 219 506
267 218 193
268 218 309
269 218 425
270 217 342
271 215 881
272 215 977
273 214 910
274 214 102
275 213 371
276 213 893
277 212 811
278 212 712
279 211 104
280 211 656
281 210 247
282 208 810
283 208 320
284 205 670
285 204 65
286 204 790
287 204 615
288 204 966
289 204 753
290 203 651
291 203 809
292 203 91
293 203 355
294 203 930
295 202 837
296 201 852
297 199 569
298 199 221
299 198 61
300 197 17
301 197 604
302 196 504
303 195 635
304 195 85
305 194 519
306 194 147
307 194 227
308 191 782
309 190 831
310 190 979
311 189 264
312 189 82
313 188 282
314 187 239
315 187 855
316 187 182
317 185 284
318 184 424
319 184 195
320 184 796
321 184 233
322 184 88
323 183 1
324 183 209
325 183 678
326 183 281
327 182 404
328 182 802
329 182 668
330 181 792
331 181 717
332 180 628
333 180 511
334 180 445
335 179 918
336 179 934
337 179 373
338 179 127
339 179 397
340 177 399
341 177 402
342 175 678
343 174 255
344 174 368
345 173 95
346 173 184
347 172 337
348 172 549
349 172 487
350 170 301
351 168 89
352 168 605
353 168 70
354 168 419
355 168 146
356 168 6
357 168 456
358 167 143
359 167 721
360 167 821
361 167 878
362 166 399
363 166 196
364 165 588
365 165 279
366 165 290
367 164 73
368 163 800
369 163 536
370 162 511
371 162 830
372 161 433
373 160 986
374 160 59
375 160 85
376 160 349
377 159 588
378 159 56
379 158 972
380 157 633
381 157 256
382 157 134
383 156 407
384 156 421
385 154 257
386 152 683
387 152 243
388 152 108
389 151 680
390 151 12
391 150 281
392 150 40
393 149 274
394 149 752
395 147 726
396 147 172
397 146 822
398 146 411
399 145 603
400 144 55
401 144 810
402 144 105
403 144 158
404 144 739
405 144 678
406 143 418
407 143 412
408 143 133
409 142 188
410 142 334
411 141 128
412 141 564
413 140 81
414 140 188
415 139 139
416 139 124
417 138 401
418 138 597
419 138 451
420 138 486
421 138 580
422 137 905
423 137 942
424 137 854
425 136 663
426 134 276
427 134 218
428 133 690
429 132 787
430 132 406
431 131 357
432 131 423
433 131 264
434 131 785
435 130 897
436 129 959
437 129 702
438 128 55
439 127 425
440 127 440
441 127 868
442 126 160
443 126 496
444 125 1
445 125 962
446 125 249
447 125 555
448 124 870
449 124 498
450 124 557
451 124 760
452 123 809
453 122 808
454 122 703
455 122 386
456 121 585
457 121 622
458 121 101
459 120 334
460 120 817
461 119 345
462 119 813
463 119 119
464 119 110
465 118 850
466 118 414
467 117 524
468 117 411
469 117 362
470 117 765
471 116 618
472 116 153
473 114 586
474 114 674
475 114 931
476 114 24
477 114 682
478 113 93
479 113 104
480 111 219
481 110 778
482 110 674
483 109 268
484 109 131
485 109 271
486 109 855
487 107 984
488 107 774
489 107 127
490 106 361
491 105 437
492 105 709
493 104 867
494 104 270
495 103 780
496 103 795
497 102 26
498 102 256
499 101 810
500 100 659
